p cnf 7230 16
871 -1120 0
-869 -1115 1116 0
-861 -1112 1113 0
-871 -1118 1119 0
869 -1117 0
861 -1114 0
871 -1123 0
-871 -1121 1122 0
-1119 1120 0
-1116 1117 0
-1113 1114 0
-1122 1123 0
1121 -1123 0
1118 -1120 0
1115 -1117 0
1112 -1114 0
